124
0 29 20 47 8 118 102 53 107 44 
22 65 46 25 36 71 17 33 4 16 
73 75 105 123 26 64 59 30 119 56 
52 67 6 91 112 13 54 106 68 9 
40 76 49 50 95 87 19 108 37 58 
120 70 14 35 28 23 24 93 103 111 
90 38 43 84 81 99 89 78 113 96 
114 92 79 41 72 101 104 85 7 110 
117 82 5 66 31 63 32 39 10 109 
61 3 74 116 1 77 11 42 62 55 
48 86 21 18 121 2 115 83 69 51 
60 15 122 57 100 88 80 27 94 97 
12 45 98 34 
